icon_drone/icon_drone/src/fuel_planner/utils/lkh_tsp_solver/resource/single.tsp
NAME : single
TYPE : ATSP
DIMENSION : 8
EDGE_WEIGHT_TYPE : EXPLICIT
EDGE_WEIGHT_FORMAT : FULL_MATRIX
EDGE_WEIGHT_SECTION
0 3967 3898 3406 2579 2078 2199 470 
0 0 175 1095 1482 2490 2408 4295 
0 175 0 1066 1353 2332 2531 4103 
0 1095 1066 0 771 1775 1736 3441 
0 1482 1353 771 0 995 1672 2962 
0 2490 2332 1775 995 0 1944 2538 
0 2408 2531 1736 1672 1944 0 1237 
0 4295 4103 3441 2962 2538 1237 0 
EOF