icon_drone/src/fuel_planner/utils/lkh_tsp_solver/resource/single.txt
NAME : single.6658.tour
COMMENT : Length = 6658
COMMENT : Found by LKH [Keld Helsgaun] Wed Sep 25 21:14:18 2024
TYPE : TOUR
DIMENSION : 8
TOUR_SECTION
1
8
7
6
5
4
3
2
-1
EOF
